unknown
(model
; cardinality of BoundSet is 3
(declare-sort BoundSet 0)
; rep: @uc_BoundSet_0
; rep: @uc_BoundSet_1
; rep: @uc_BoundSet_2
; cardinality of UnboundSet is 1
(declare-sort UnboundSet 0)
(declare-fun groundTerm_4 () UnboundSet)
(define-fun BelievesIn ((BOUND_VARIABLE_403 BoundSet) (BOUND_VARIABLE_404 BoundSet)) Bool false)
(define-fun BurnsIn ((BOUND_VARIABLE_403 BoundSet) (BOUND_VARIABLE_404 BoundSet)) Bool true)
(define-fun IsInHellForever ((BOUND_VARIABLE_412 BoundSet)) Bool true)
)
sat
(model
; cardinality of BoundSet is 1
(declare-sort BoundSet 0)
; rep: @uc_BoundSet_0
; cardinality of UnboundSet is 1
(declare-sort UnboundSet 0)
(declare-fun groundTerm_6 () UnboundSet)
(define-fun BelievesIn ((BOUND_VARIABLE_418 BoundSet) (BOUND_VARIABLE_419 BoundSet)) Bool false)
(define-fun BurnsIn ((BOUND_VARIABLE_418 BoundSet) (BOUND_VARIABLE_419 BoundSet)) Bool true)
(define-fun IsInHellForever ((BOUND_VARIABLE_427 BoundSet)) Bool true)
)
